\ This file was automatically generated by Zimpl
\ set indice := {1, 2, 3};
\ param custoAlimentoKgReais[indice] := <1> 0.21, <2> 0.18, <3> 0.15;
\ var quantAlimentoKG[indice] >= 0;
\ minimize custo: sum<i> in indice : custoAlimentoKgReais[i] * quantAlimentoKG[i];
\ subto carboidratos: quantAlimentoKG[1] + quantAlimentoKG[2] + quantAlimentoKG[3] >= 200;
\ subto proteinas: quantAlimentoKG[1] + quantAlimentoKG[2] + quantAlimentoKG[3] >= 180 ;
\ subto vitaminas: quantAlimentoKG[1] + quantAlimentoKG[2] + quantAlimentoKG[3] >= 150;
\Problem name: .\file.zpl
Minimize
 custo:  +0.21 quantAlimentoK@0 +0.18 quantAlimentoK@1 +0.15 quantAlimentoK@2
Subject to
 carboidratos_1:
  + quantAlimentoK@2 + quantAlimentoK@1 + quantAlimentoK@0 >= 200
 proteinas_1:
  + quantAlimentoK@2 + quantAlimentoK@1 + quantAlimentoK@0 >= 180
 vitaminas_1:
  + quantAlimentoK@2 + quantAlimentoK@1 + quantAlimentoK@0 >= 150
Bounds
 0 <= quantAlimentoK@0 <= +inf
 0 <= quantAlimentoK@1 <= +inf
 0 <= quantAlimentoK@2 <= +inf
End
